20 10
6 23 12 18 21 17 18 28 29 10
3 9 8 6 10 32 10 18 11 14
87 79 74 60 80 76 79 59 75 80
60 62 77 80 81 69 63 81 77 82
88 91 88 97 90 89 94 93 86 85
21 35 39 44 21 30 35 33 38 38
83 63 87 90 81 72 75 86 77 80
54 29 63 47 52 60 54 46 43 60
71 29 55 39 41 56 42 52 53 47
3 3 2 2 2 2 3 2 2 2
80 88 90 72 75 87 75 69 76 83
7 8 10 6 9 8 7 5 7 6
32 64 71 56 58 47 33 31 62 47
81 77 52 74 59 75 61 68 68 58
72 73 49 77 72 84 79 83 77 68
98 99 97 98 93 93 95 98 98 96
70 58 64 52 73 64 65 73 59 81
72 87 69 90 86 70 72 77 71 81
2 2 2 2 2 2 4 2 2 3
56 47 40 25 40 64 26 35 18 38
